c description: Random 3-CNF over 15 variables and 60 clauses
p cnf 15 60
4 9 12 0
-12 13 14 0
-5 -9 -10 0
-2 -5 -6 0
1 -5 -13 0
-7 13 15 0
-5 11 12 0
6 -11 -14 0
5 -6 15 0
-1 2 -14 0
4 6 9 0
4 8 -15 0
3 -13 -14 0
-8 10 -13 0
-5 9 -11 0
6 -13 14 0
5 -7 -10 0
7 -10 -15 0
8 12 -14 0
-2 -7 -15 0
6 -7 -9 0
-3 4 14 0
2 3 -15 0
-1 -2 -14 0
2 -6 -11 0
6 8 -11 0
-7 9 -11 0
7 9 -14 0
-2 -5 6 0
5 -10 13 0
1 2 7 0
-4 -8 -11 0
1 3 7 0
2 -10 -15 0
-3 -9 -12 0
-5 -6 12 0
5 -11 13 0
-9 -12 13 0
-2 -3 -10 0
-6 -10 -15 0
2 -12 15 0
1 7 -12 0
4 -10 13 0
-9 13 -14 0
-2 -10 12 0
4 -11 15 0
2 -4 -8 0
-7 -11 12 0
-3 5 14 0
-7 -10 14 0
-6 -13 14 0
7 -9 10 0
4 -9 -15 0
6 -9 -14 0
-1 4 -9 0
-2 5 -8 0
2 5 11 0
1 -3 7 0
-1 2 -9 0
4 -6 -11 0